************************************************************************
file with basedata            : mm7_.bas
initial value random generator: 1875255393
************************************************************************
projects                      :  1
jobs (incl. supersource/sink ):  12
horizon                       :  86
RESOURCES
  - renewable                 :  2   R
  - nonrenewable              :  2   N
  - doubly constrained        :  0   D
************************************************************************
PROJECT INFORMATION:
pronr.  #jobs rel.date duedate tardcost  MPM-Time
    1     10      0       20        4       20
************************************************************************
PRECEDENCE RELATIONS:
jobnr.    #modes  #successors   successors
   0        1          3           1   2   3
   1        3          2           5   8
   2        3          3           6   7   8
   3        3          2           4  10
   4        3          1           6
   5        3          2           6   7
   6        3          1           9
   7        3          1          10
   8        3          1          11
   9        3          1          11
  10        3          1          11
  11        1          0        
************************************************************************
REQUESTS/DURATIONS:
jobnr. mode duration  R 1  R 2  R 3  R 4  E(W 1)  E(W 2)  E(W 3)
------------------------------------------------------------------------
  0      1     0       0    0    0    0     0       0       0
  1      1     5       0    5    8    1    25      40      10
  2      1     7       6    0    6    9    42      42      63
  3      1     3       0   10    9    7    30      27      21
  4      1     2       0   10    8    6    20      16      12
  5      1     6       6    0    9    9    36      54      54
  6      1     5       0    3    9    6    15      45      30
  7      1     4       7    0    7    8    28      28      32
  8      1     2       5    0    7    9    10      14      18
  9      1     2       6    0    5    5    12      10      10
 10      1     5       2    0    8    6    10      40      30
 11      1     0       0    0    0    0     0       0       0
************************************************************************
RESOURCEAVAILABILITIES:
  R 1  R 2  R 3
   12   69   61
************************************************************************
RESOURCE LIMITS:
jobnr.  l(R 1)  u(R 1)  l(R 2)  u(R 2)  l(R 3)  u(R 3)
------------------------------------------------------------------------
  0        0       0       0       0       0       0
  1        3       5       4       8       1       2
  2        3       6       3       6       5       9
  3        5      10       5       9       4       7
  4        5      10       4       8       3       6
  5        3       6       5       9       5       9
  6        2       3       5       9       3       6
  7        4       7       4       7       4       8
  8        3       5       4       7       5       9
  9        3       6       3       5       3       5
 10        1       2       4       8       3       6
 11        0       0       0       0       0       0
************************************************************************
SCENARIOS:
------------------------------------------------------------------------
RESOURCE k = 1
s = 1: (0, 32, 49, 35, 22, 53, 11, 18, 11, 10, 12, 0)
s = 2: (0, 29, 33, 20, 19, 23, 15, 32, 12, 15, 8, 0)
s = 3: (0, 23, 61, 25, 17, 44, 25, 25, 12, 8, 10, 0)
s = 4: (0, 24, 74, 26, 16, 61, 17, 27, 10, 12, 17, 0)
s = 5: (0, 29, 35, 36, 16, 21, 21, 30, 11, 11, 7, 0)
s = 6: (0, 17, 51, 28, 15, 25, 18, 25, 8, 10, 18, 0)
s = 7: (0, 24, 37, 30, 15, 23, 17, 44, 9, 10, 8, 0)
s = 8: (0, 25, 41, 45, 17, 40, 16, 25, 12, 8, 13, 0)
s = 9: (0, 18, 71, 37, 25, 26, 12, 21, 9, 15, 7, 0)
s = 10: (0, 23, 43, 22, 14, 34, 14, 28, 10, 13, 10, 0)
s = 11: (0, 23, 34, 23, 15, 32, 15, 29, 8, 13, 9, 0)
s = 12: (0, 36, 29, 20, 22, 42, 16, 30, 8, 9, 10, 0)
s = 13: (0, 41, 33, 27, 16, 36, 10, 34, 9, 11, 10, 0)
s = 14: (0, 25, 39, 20, 24, 39, 18, 30, 13, 18, 12, 0)
s = 15: (0, 25, 64, 36, 22, 52, 11, 27, 12, 15, 7, 0)
s = 16: (0, 40, 43, 18, 18, 24, 12, 21, 10, 13, 9, 0)
s = 17: (0, 33, 31, 24, 24, 35, 10, 23, 9, 8, 7, 0)
s = 18: (0, 28, 27, 53, 22, 39, 18, 23, 13, 12, 11, 0)
s = 19: (0, 23, 28, 35, 17, 23, 14, 33, 12, 12, 7, 0)
s = 20: (0, 23, 27, 37, 13, 29, 21, 30, 13, 13, 11, 0)
s = 21: (0, 36, 29, 22, 23, 35, 12, 34, 9, 10, 7, 0)
s = 22: (0, 33, 42, 31, 12, 48, 17, 30, 7, 22, 17, 0)
s = 23: (0, 15, 36, 44, 16, 31, 11, 43, 8, 9, 11, 0)
s = 24: (0, 15, 36, 30, 21, 34, 12, 23, 10, 12, 9, 0)
s = 25: (0, 33, 42, 28, 18, 29, 11, 30, 13, 13, 10, 0)
s = 26: (0, 23, 49, 21, 27, 35, 13, 17, 10, 11, 9, 0)
s = 27: (0, 23, 41, 34, 19, 61, 17, 31, 7, 9, 8, 0)
s = 28: (0, 32, 50, 24, 25, 37, 13, 21, 12, 11, 10, 0)
s = 29: (0, 27, 51, 45, 14, 37, 12, 25, 10, 14, 9, 0)
s = 30: (0, 29, 32, 25, 23, 39, 21, 36, 10, 16, 8, 0)
s = 31: (0, 23, 30, 31, 13, 30, 16, 33, 16, 12, 7, 0)
s = 32: (0, 36, 39, 40, 28, 27, 28, 32, 7, 14, 7, 0)
s = 33: (0, 14, 36, 23, 20, 37, 25, 17, 12, 11, 13, 0)
s = 34: (0, 22, 23, 34, 21, 41, 13, 39, 9, 10, 16, 0)
s = 35: (0, 20, 55, 25, 28, 31, 13, 28, 15, 9, 10, 0)
s = 36: (0, 23, 27, 28, 27, 28, 11, 24, 8, 9, 12, 0)
s = 37: (0, 31, 46, 39, 15, 40, 14, 32, 12, 13, 10, 0)
s = 38: (0, 20, 43, 17, 20, 36, 11, 19, 12, 8, 11, 0)
s = 39: (0, 30, 24, 46, 19, 35, 13, 19, 12, 14, 7, 0)
s = 40: (0, 19, 37, 23, 34, 37, 14, 22, 15, 12, 11, 0)
s = 41: (0, 17, 47, 20, 16, 35, 18, 34, 7, 20, 16, 0)
s = 42: (0, 18, 52, 24, 20, 25, 17, 43, 12, 16, 11, 0)
s = 43: (0, 22, 29, 44, 16, 43, 16, 17, 8, 10, 11, 0)
s = 44: (0, 25, 55, 25, 18, 50, 9, 28, 12, 10, 12, 0)
s = 45: (0, 28, 39, 34, 19, 36, 15, 32, 6, 17, 11, 0)
s = 46: (0, 31, 37, 46, 22, 34, 17, 19, 9, 12, 9, 0)
s = 47: (0, 21, 33, 26, 22, 54, 13, 19, 13, 9, 6, 0)
s = 48: (0, 20, 34, 24, 23, 24, 15, 31, 9, 16, 7, 0)
s = 49: (0, 19, 33, 32, 20, 30, 18, 17, 11, 22, 9, 0)
s = 50: (0, 31, 49, 17, 36, 37, 24, 37, 8, 15, 6, 0)
s = 51: (0, 16, 41, 27, 27, 56, 20, 53, 8, 8, 9, 0)
s = 52: (0, 26, 36, 30, 13, 30, 10, 31, 10, 11, 8, 0)
s = 53: (0, 35, 31, 29, 26, 46, 16, 23, 9, 9, 9, 0)
s = 54: (0, 21, 41, 38, 28, 48, 18, 26, 11, 13, 13, 0)
s = 55: (0, 25, 67, 21, 18, 45, 13, 29, 11, 10, 13, 0)
s = 56: (0, 28, 51, 29, 16, 38, 22, 25, 9, 12, 12, 0)
s = 57: (0, 24, 49, 24, 24, 21, 21, 28, 10, 10, 8, 0)
s = 58: (0, 25, 47, 23, 21, 21, 19, 25, 9, 9, 13, 0)
s = 59: (0, 18, 54, 49, 21, 42, 20, 35, 11, 10, 6, 0)
s = 60: (0, 19, 28, 28, 18, 36, 12, 24, 8, 15, 9, 0)
s = 61: (0, 42, 36, 32, 18, 36, 10, 24, 9, 12, 7, 0)
s = 62: (0, 29, 34, 33, 31, 29, 16, 31, 10, 10, 9, 0)
s = 63: (0, 22, 39, 18, 17, 21, 18, 17, 13, 8, 10, 0)
s = 64: (0, 18, 26, 41, 29, 35, 13, 30, 14, 20, 12, 0)
s = 65: (0, 21, 29, 35, 20, 30, 21, 19, 9, 11, 8, 0)
s = 66: (0, 26, 50, 34, 18, 26, 11, 29, 9, 14, 16, 0)
s = 67: (0, 24, 55, 34, 14, 50, 12, 29, 13, 9, 13, 0)
s = 68: (0, 44, 30, 35, 25, 44, 11, 21, 9, 7, 11, 0)
s = 69: (0, 38, 33, 33, 25, 27, 13, 44, 8, 8, 10, 0)
s = 70: (0, 20, 37, 33, 23, 25, 15, 26, 11, 14, 7, 0)
s = 71: (0, 32, 37, 37, 15, 42, 14, 20, 12, 19, 10, 0)
s = 72: (0, 35, 32, 23, 15, 43, 16, 24, 7, 12, 10, 0)
s = 73: (0, 25, 45, 24, 14, 50, 22, 19, 8, 14, 12, 0)
s = 74: (0, 22, 31, 45, 18, 27, 16, 26, 12, 21, 17, 0)
s = 75: (0, 26, 38, 30, 20, 24, 12, 25, 17, 9, 10, 0)
s = 76: (0, 41, 56, 30, 20, 31, 18, 27, 8, 13, 11, 0)
s = 77: (0, 26, 55, 51, 17, 33, 21, 24, 13, 18, 7, 0)
s = 78: (0, 15, 30, 32, 24, 37, 13, 33, 17, 11, 12, 0)
s = 79: (0, 25, 53, 31, 23, 27, 15, 19, 14, 7, 12, 0)
s = 80: (0, 26, 31, 44, 28, 37, 13, 28, 8, 12, 8, 0)
s = 81: (0, 25, 35, 38, 16, 25, 13, 19, 13, 11, 8, 0)
s = 82: (0, 22, 54, 25, 16, 40, 12, 37, 9, 16, 8, 0)
s = 83: (0, 43, 33, 24, 19, 38, 14, 23, 7, 11, 9, 0)
s = 84: (0, 18, 54, 30, 16, 27, 14, 50, 12, 8, 13, 0)
s = 85: (0, 29, 45, 36, 19, 26, 12, 22, 8, 11, 8, 0)
s = 86: (0, 24, 35, 28, 19, 21, 17, 30, 15, 19, 10, 0)
s = 87: (0, 28, 59, 36, 20, 30, 17, 21, 7, 7, 12, 0)
s = 88: (0, 23, 32, 23, 22, 29, 20, 22, 16, 16, 10, 0)
s = 89: (0, 27, 28, 22, 23, 47, 14, 33, 11, 11, 7, 0)
s = 90: (0, 17, 23, 38, 11, 26, 13, 39, 10, 11, 8, 0)
s = 91: (0, 20, 37, 37, 22, 37, 9, 17, 9, 8, 8, 0)
s = 92: (0, 24, 27, 26, 18, 43, 13, 22, 7, 10, 8, 0)
s = 93: (0, 26, 33, 18, 21, 41, 12, 20, 14, 14, 10, 0)
s = 94: (0, 28, 35, 22, 19, 33, 13, 36, 6, 7, 7, 0)
s = 95: (0, 28, 28, 36, 13, 38, 16, 22, 11, 15, 8, 0)
s = 96: (0, 30, 33, 41, 35, 23, 19, 21, 14, 19, 9, 0)
s = 97: (0, 21, 34, 30, 27, 33, 25, 30, 9, 12, 11, 0)
s = 98: (0, 27, 32, 29, 15, 64, 13, 19, 7, 18, 9, 0)
s = 99: (0, 19, 33, 27, 22, 30, 19, 42, 7, 14, 10, 0)
s = 100: (0, 28, 37, 32, 21, 50, 24, 28, 13, 17, 16, 0)
s = 101: (0, 22, 37, 16, 20, 22, 13, 17, 7, 8, 16, 0)
s = 102: (0, 24, 33, 32, 14, 60, 9, 21, 12, 17, 11, 0)
s = 103: (0, 27, 42, 32, 33, 40, 15, 39, 12, 8, 9, 0)
s = 104: (0, 21, 39, 20, 16, 25, 15, 16, 16, 9, 8, 0)
s = 105: (0, 31, 39, 36, 21, 69, 11, 38, 12, 9, 9, 0)
s = 106: (0, 22, 40, 27, 17, 24, 12, 27, 9, 10, 11, 0)
s = 107: (0, 31, 57, 24, 15, 57, 13, 36, 12, 9, 12, 0)
s = 108: (0, 38, 38, 42, 26, 39, 14, 24, 11, 18, 13, 0)
s = 109: (0, 36, 43, 21, 21, 63, 10, 44, 10, 12, 14, 0)
s = 110: (0, 22, 31, 37, 25, 26, 18, 17, 9, 10, 8, 0)
s = 111: (0, 27, 56, 38, 17, 47, 16, 26, 6, 17, 8, 0)
s = 112: (0, 29, 41, 39, 20, 22, 15, 26, 10, 12, 12, 0)
s = 113: (0, 43, 32, 18, 15, 57, 16, 28, 12, 18, 7, 0)
s = 114: (0, 22, 36, 24, 17, 43, 22, 39, 9, 8, 9, 0)
s = 115: (0, 26, 41, 32, 19, 31, 13, 24, 12, 19, 11, 0)
s = 116: (0, 36, 53, 32, 26, 32, 15, 19, 14, 12, 16, 0)
s = 117: (0, 37, 53, 45, 27, 36, 16, 35, 12, 16, 16, 0)
s = 118: (0, 18, 42, 24, 14, 64, 21, 36, 6, 15, 13, 0)
s = 119: (0, 40, 49, 23, 18, 49, 9, 20, 10, 11, 10, 0)
s = 120: (0, 26, 49, 48, 21, 34, 15, 51, 10, 16, 7, 0)
s = 121: (0, 35, 27, 46, 16, 28, 9, 38, 10, 13, 15, 0)
s = 122: (0, 18, 64, 28, 18, 31, 10, 27, 16, 13, 7, 0)
s = 123: (0, 18, 50, 23, 20, 26, 11, 31, 11, 11, 7, 0)
s = 124: (0, 17, 26, 22, 16, 28, 10, 18, 15, 16, 15, 0)
s = 125: (0, 37, 50, 41, 19, 22, 16, 31, 18, 12, 11, 0)
s = 126: (0, 35, 59, 22, 20, 66, 13, 34, 13, 14, 7, 0)
s = 127: (0, 22, 29, 39, 20, 37, 20, 22, 13, 9, 17, 0)
s = 128: (0, 24, 45, 37, 17, 23, 13, 22, 14, 9, 14, 0)
s = 129: (0, 33, 47, 25, 18, 31, 13, 19, 8, 16, 15, 0)
s = 130: (0, 20, 45, 23, 29, 33, 12, 33, 13, 11, 11, 0)
s = 131: (0, 25, 40, 19, 27, 74, 16, 30, 12, 12, 17, 0)
s = 132: (0, 20, 29, 24, 18, 29, 12, 28, 11, 9, 12, 0)
s = 133: (0, 41, 64, 31, 20, 41, 9, 41, 15, 10, 11, 0)
s = 134: (0, 32, 23, 16, 23, 27, 9, 32, 10, 11, 10, 0)
s = 135: (0, 23, 55, 30, 14, 27, 14, 36, 18, 8, 9, 0)
s = 136: (0, 27, 35, 30, 17, 37, 16, 28, 12, 10, 9, 0)
s = 137: (0, 43, 48, 32, 25, 33, 9, 53, 13, 15, 7, 0)
s = 138: (0, 33, 27, 34, 18, 38, 20, 19, 6, 8, 9, 0)
s = 139: (0, 26, 56, 38, 18, 31, 12, 23, 14, 9, 11, 0)
s = 140: (0, 19, 31, 27, 31, 33, 9, 35, 8, 10, 15, 0)
s = 141: (0, 24, 26, 19, 13, 38, 21, 26, 14, 7, 10, 0)
s = 142: (0, 36, 62, 19, 29, 45, 23, 17, 9, 16, 13, 0)
s = 143: (0, 29, 30, 27, 16, 41, 17, 17, 12, 15, 8, 0)
s = 144: (0, 23, 33, 22, 14, 41, 17, 34, 15, 13, 9, 0)
s = 145: (0, 20, 39, 31, 16, 32, 23, 30, 9, 10, 10, 0)
s = 146: (0, 32, 52, 18, 13, 33, 11, 39, 11, 12, 13, 0)
s = 147: (0, 22, 65, 32, 19, 36, 16, 17, 10, 10, 13, 0)
s = 148: (0, 23, 32, 40, 25, 25, 22, 18, 10, 13, 13, 0)
s = 149: (0, 35, 44, 17, 33, 22, 10, 24, 9, 12, 7, 0)
s = 150: (0, 20, 42, 43, 24, 25, 13, 23, 11, 13, 7, 0)
s = 151: (0, 19, 38, 41, 19, 21, 13, 28, 10, 12, 8, 0)
s = 152: (0, 17, 44, 21, 16, 29, 12, 19, 7, 13, 8, 0)
s = 153: (0, 20, 44, 32, 18, 21, 17, 28, 12, 15, 9, 0)
s = 154: (0, 33, 36, 29, 28, 28, 14, 20, 10, 15, 10, 0)
s = 155: (0, 26, 43, 46, 23, 36, 10, 20, 9, 19, 7, 0)
s = 156: (0, 16, 48, 31, 26, 28, 10, 35, 12, 17, 18, 0)
s = 157: (0, 23, 39, 29, 14, 26, 9, 21, 9, 16, 9, 0)
s = 158: (0, 16, 57, 30, 14, 32, 15, 26, 9, 7, 9, 0)
s = 159: (0, 33, 35, 26, 22, 28, 18, 41, 9, 22, 17, 0)
s = 160: (0, 31, 42, 31, 22, 26, 17, 29, 8, 16, 7, 0)
s = 161: (0, 21, 34, 26, 21, 27, 11, 35, 10, 14, 11, 0)
s = 162: (0, 35, 51, 55, 20, 33, 17, 47, 8, 9, 15, 0)
s = 163: (0, 25, 36, 27, 24, 44, 10, 44, 11, 11, 12, 0)
s = 164: (0, 35, 53, 28, 24, 25, 19, 30, 9, 7, 9, 0)
s = 165: (0, 29, 43, 24, 13, 41, 26, 20, 10, 10, 12, 0)
s = 166: (0, 30, 42, 18, 25, 38, 23, 18, 11, 9, 10, 0)
s = 167: (0, 32, 47, 57, 23, 44, 16, 40, 11, 11, 14, 0)
s = 168: (0, 26, 39, 27, 12, 61, 20, 37, 8, 9, 7, 0)
s = 169: (0, 29, 48, 21, 15, 24, 13, 36, 9, 8, 11, 0)
s = 170: (0, 27, 28, 26, 20, 28, 12, 16, 14, 15, 18, 0)
s = 171: (0, 31, 28, 22, 22, 26, 10, 26, 8, 10, 12, 0)
s = 172: (0, 27, 28, 32, 21, 23, 13, 21, 9, 14, 9, 0)
s = 173: (0, 41, 45, 21, 12, 32, 17, 25, 6, 10, 9, 0)
s = 174: (0, 25, 41, 35, 19, 35, 17, 33, 11, 7, 15, 0)
s = 175: (0, 20, 59, 26, 15, 28, 17, 28, 7, 8, 8, 0)
s = 176: (0, 15, 36, 29, 32, 27, 12, 19, 9, 16, 12, 0)
s = 177: (0, 17, 54, 29, 29, 47, 9, 24, 7, 16, 9, 0)
s = 178: (0, 39, 45, 31, 29, 21, 18, 46, 12, 11, 12, 0)
s = 179: (0, 15, 53, 32, 18, 36, 10, 42, 12, 13, 9, 0)
s = 180: (0, 21, 38, 28, 18, 52, 17, 32, 8, 13, 9, 0)
s = 181: (0, 31, 55, 35, 17, 30, 10, 36, 9, 15, 15, 0)
s = 182: (0, 15, 41, 41, 15, 25, 10, 28, 11, 10, 9, 0)
s = 183: (0, 18, 37, 47, 19, 29, 19, 17, 16, 12, 10, 0)
s = 184: (0, 35, 36, 30, 16, 42, 13, 23, 9, 14, 9, 0)
s = 185: (0, 19, 37, 23, 19, 28, 15, 28, 8, 16, 8, 0)
s = 186: (0, 17, 37, 32, 17, 23, 14, 28, 16, 11, 13, 0)
s = 187: (0, 24, 35, 37, 19, 26, 16, 34, 10, 8, 16, 0)
s = 188: (0, 30, 68, 20, 27, 24, 19, 25, 14, 9, 13, 0)
s = 189: (0, 35, 43, 18, 25, 21, 11, 47, 10, 10, 11, 0)
s = 190: (0, 36, 48, 22, 12, 45, 14, 23, 13, 11, 10, 0)
s = 191: (0, 26, 34, 36, 19, 42, 15, 33, 7, 15, 12, 0)
s = 192: (0, 16, 77, 33, 18, 48, 14, 40, 9, 14, 7, 0)
s = 193: (0, 28, 30, 23, 24, 39, 24, 26, 7, 10, 7, 0)
s = 194: (0, 33, 44, 27, 23, 26, 13, 47, 9, 15, 10, 0)
s = 195: (0, 32, 26, 41, 24, 41, 11, 42, 11, 16, 15, 0)
s = 196: (0, 26, 39, 24, 19, 37, 8, 19, 10, 8, 9, 0)
s = 197: (0, 49, 56, 34, 19, 65, 15, 20, 13, 15, 8, 0)
s = 198: (0, 19, 51, 45, 21, 33, 19, 25, 15, 16, 11, 0)
s = 199: (0, 31, 51, 28, 22, 43, 19, 30, 14, 16, 12, 0)
s = 200: (0, 15, 51, 50, 15, 69, 10, 37, 9, 17, 6, 0)
------------------------------------------------------------------------
RESOURCE k = 2
s = 1: (0, 51, 49, 31, 18, 80, 31, 18, 15, 9, 45, 0)
s = 2: (0, 47, 33, 18, 15, 34, 45, 32, 16, 13, 32, 0)
s = 3: (0, 36, 61, 22, 13, 66, 75, 25, 17, 7, 39, 0)
s = 4: (0, 37, 74, 23, 13, 91, 51, 27, 14, 10, 66, 0)
s = 5: (0, 46, 35, 32, 13, 31, 61, 30, 15, 10, 27, 0)
s = 6: (0, 27, 51, 25, 12, 38, 53, 25, 11, 8, 69, 0)
s = 7: (0, 39, 37, 27, 12, 34, 51, 44, 12, 9, 32, 0)
s = 8: (0, 40, 41, 41, 14, 60, 47, 25, 16, 7, 51, 0)
s = 9: (0, 29, 71, 33, 20, 39, 34, 21, 12, 13, 27, 0)
s = 10: (0, 37, 43, 19, 12, 51, 41, 28, 14, 11, 39, 0)
s = 11: (0, 36, 34, 21, 12, 48, 45, 29, 11, 11, 35, 0)
s = 12: (0, 57, 29, 18, 18, 63, 46, 30, 11, 7, 38, 0)
s = 13: (0, 65, 33, 24, 13, 53, 30, 34, 13, 9, 39, 0)
s = 14: (0, 39, 39, 18, 20, 58, 53, 30, 18, 15, 45, 0)
s = 15: (0, 39, 64, 32, 18, 78, 33, 27, 17, 12, 28, 0)
s = 16: (0, 64, 43, 17, 15, 36, 35, 21, 14, 11, 36, 0)
s = 17: (0, 52, 31, 22, 19, 52, 28, 23, 12, 7, 27, 0)
s = 18: (0, 44, 27, 48, 18, 58, 52, 23, 18, 10, 43, 0)
s = 19: (0, 37, 28, 32, 13, 34, 40, 33, 17, 10, 25, 0)
s = 20: (0, 36, 27, 33, 11, 44, 63, 30, 18, 11, 41, 0)
s = 21: (0, 58, 29, 20, 19, 53, 36, 34, 12, 8, 27, 0)
s = 22: (0, 53, 42, 28, 10, 72, 51, 30, 10, 18, 67, 0)
s = 23: (0, 23, 36, 40, 13, 46, 32, 43, 11, 7, 43, 0)
s = 24: (0, 23, 36, 27, 17, 51, 36, 23, 14, 10, 35, 0)
s = 25: (0, 52, 42, 25, 14, 43, 33, 30, 18, 11, 39, 0)
s = 26: (0, 37, 49, 19, 22, 52, 37, 17, 14, 9, 35, 0)
s = 27: (0, 37, 41, 31, 16, 91, 49, 31, 10, 8, 30, 0)
s = 28: (0, 50, 50, 22, 20, 56, 39, 21, 16, 9, 38, 0)
s = 29: (0, 44, 51, 41, 12, 55, 35, 25, 14, 11, 33, 0)
s = 30: (0, 46, 32, 22, 19, 59, 61, 36, 14, 13, 32, 0)
s = 31: (0, 36, 30, 28, 10, 45, 48, 33, 22, 10, 26, 0)
s = 32: (0, 58, 39, 36, 23, 40, 84, 32, 10, 12, 26, 0)
s = 33: (0, 23, 36, 21, 16, 55, 75, 17, 17, 9, 49, 0)
s = 34: (0, 34, 23, 31, 17, 61, 39, 39, 13, 8, 62, 0)
s = 35: (0, 32, 55, 22, 22, 47, 38, 28, 20, 7, 37, 0)
s = 36: (0, 37, 27, 25, 22, 42, 32, 24, 11, 8, 45, 0)
s = 37: (0, 49, 46, 35, 12, 60, 41, 32, 17, 11, 37, 0)
s = 38: (0, 32, 43, 15, 16, 54, 33, 19, 17, 7, 43, 0)
s = 39: (0, 48, 24, 42, 16, 53, 39, 19, 17, 12, 26, 0)
s = 40: (0, 31, 37, 21, 27, 56, 41, 22, 20, 10, 41, 0)
s = 41: (0, 28, 47, 18, 13, 52, 54, 34, 9, 17, 63, 0)
s = 42: (0, 29, 52, 22, 16, 37, 50, 43, 17, 13, 41, 0)
s = 43: (0, 35, 29, 39, 13, 64, 48, 17, 11, 8, 43, 0)
s = 44: (0, 39, 55, 23, 14, 75, 27, 28, 16, 8, 48, 0)
s = 45: (0, 44, 39, 31, 15, 54, 43, 32, 8, 14, 43, 0)
s = 46: (0, 49, 37, 41, 18, 50, 49, 19, 13, 10, 36, 0)
s = 47: (0, 34, 33, 23, 18, 80, 38, 19, 18, 7, 24, 0)
s = 48: (0, 32, 34, 22, 18, 35, 43, 31, 13, 14, 27, 0)
s = 49: (0, 30, 33, 29, 16, 45, 52, 17, 15, 19, 33, 0)
s = 50: (0, 49, 49, 16, 29, 55, 71, 37, 11, 12, 23, 0)
s = 51: (0, 25, 41, 24, 21, 84, 60, 53, 12, 7, 33, 0)
s = 52: (0, 41, 36, 27, 11, 45, 29, 31, 14, 9, 31, 0)
s = 53: (0, 56, 31, 26, 21, 69, 46, 23, 13, 8, 33, 0)
s = 54: (0, 34, 41, 35, 23, 72, 54, 26, 15, 11, 51, 0)
s = 55: (0, 39, 67, 19, 14, 67, 39, 29, 15, 8, 50, 0)
s = 56: (0, 45, 51, 26, 13, 57, 64, 25, 12, 10, 47, 0)
s = 57: (0, 38, 49, 21, 20, 31, 61, 28, 13, 8, 32, 0)
s = 58: (0, 40, 47, 20, 17, 31, 57, 25, 12, 8, 50, 0)
s = 59: (0, 28, 54, 44, 17, 62, 60, 35, 15, 8, 22, 0)
s = 60: (0, 31, 28, 25, 15, 53, 36, 24, 11, 13, 36, 0)
s = 61: (0, 66, 36, 29, 14, 54, 30, 24, 12, 10, 26, 0)
s = 62: (0, 46, 34, 29, 25, 44, 47, 31, 14, 8, 35, 0)
s = 63: (0, 35, 39, 16, 13, 32, 53, 17, 17, 7, 39, 0)
s = 64: (0, 28, 26, 37, 23, 53, 39, 30, 20, 17, 47, 0)
s = 65: (0, 33, 29, 32, 16, 44, 62, 19, 13, 9, 29, 0)
s = 66: (0, 41, 50, 31, 15, 39, 32, 29, 13, 12, 62, 0)
s = 67: (0, 38, 55, 31, 12, 74, 35, 29, 18, 8, 51, 0)
s = 68: (0, 70, 30, 32, 20, 65, 33, 21, 12, 6, 43, 0)
s = 69: (0, 61, 33, 30, 20, 40, 38, 44, 11, 7, 39, 0)
s = 70: (0, 32, 37, 29, 19, 37, 45, 26, 16, 11, 25, 0)
s = 71: (0, 51, 37, 33, 12, 62, 41, 20, 17, 16, 38, 0)
s = 72: (0, 55, 32, 20, 12, 64, 48, 24, 10, 10, 40, 0)
s = 73: (0, 40, 45, 22, 11, 74, 65, 19, 10, 11, 46, 0)
s = 74: (0, 35, 31, 41, 15, 40, 48, 26, 17, 17, 65, 0)
s = 75: (0, 41, 38, 27, 16, 35, 34, 25, 23, 7, 40, 0)
s = 76: (0, 66, 56, 27, 16, 46, 53, 27, 11, 11, 44, 0)
s = 77: (0, 42, 55, 46, 14, 50, 62, 24, 18, 15, 26, 0)
s = 78: (0, 24, 30, 29, 20, 56, 39, 33, 24, 9, 48, 0)
s = 79: (0, 39, 53, 28, 18, 41, 45, 19, 20, 6, 45, 0)
s = 80: (0, 41, 31, 40, 23, 56, 37, 28, 11, 10, 29, 0)
s = 81: (0, 39, 35, 34, 13, 37, 37, 19, 18, 9, 32, 0)
s = 82: (0, 34, 54, 22, 13, 60, 34, 37, 12, 13, 31, 0)
s = 83: (0, 68, 33, 22, 16, 57, 40, 23, 9, 9, 35, 0)
s = 84: (0, 28, 54, 27, 13, 40, 40, 50, 17, 7, 49, 0)
s = 85: (0, 47, 45, 32, 15, 39, 36, 22, 11, 9, 31, 0)
s = 86: (0, 38, 35, 25, 15, 31, 49, 30, 21, 16, 40, 0)
s = 87: (0, 45, 59, 32, 16, 44, 49, 21, 10, 6, 48, 0)
s = 88: (0, 36, 32, 21, 18, 44, 60, 22, 22, 14, 39, 0)
s = 89: (0, 43, 28, 19, 18, 71, 40, 33, 15, 9, 26, 0)
s = 90: (0, 28, 23, 34, 9, 39, 38, 39, 14, 10, 30, 0)
s = 91: (0, 32, 37, 33, 18, 55, 25, 17, 12, 7, 30, 0)
s = 92: (0, 38, 27, 23, 15, 65, 39, 22, 9, 8, 29, 0)
s = 93: (0, 42, 33, 17, 17, 62, 34, 20, 19, 12, 39, 0)
s = 94: (0, 44, 35, 20, 15, 49, 38, 36, 9, 6, 26, 0)
s = 95: (0, 44, 28, 32, 11, 56, 46, 22, 15, 13, 29, 0)
s = 96: (0, 48, 33, 37, 28, 35, 55, 21, 19, 16, 36, 0)
s = 97: (0, 33, 34, 27, 22, 50, 75, 30, 13, 10, 43, 0)
s = 98: (0, 42, 32, 26, 12, 96, 38, 19, 9, 15, 35, 0)
s = 99: (0, 30, 33, 24, 18, 44, 55, 42, 10, 11, 40, 0)
s = 100: (0, 45, 37, 29, 17, 74, 70, 28, 18, 14, 62, 0)
s = 101: (0, 34, 37, 15, 16, 32, 38, 17, 10, 6, 61, 0)
s = 102: (0, 38, 33, 29, 11, 90, 26, 21, 17, 15, 41, 0)
s = 103: (0, 43, 42, 29, 27, 60, 44, 39, 16, 7, 34, 0)
s = 104: (0, 34, 39, 18, 13, 37, 44, 16, 22, 8, 29, 0)
s = 105: (0, 49, 39, 32, 17, 103, 32, 38, 17, 8, 33, 0)
s = 106: (0, 35, 40, 25, 14, 36, 35, 27, 13, 8, 43, 0)
s = 107: (0, 50, 57, 21, 12, 86, 38, 36, 16, 7, 46, 0)
s = 108: (0, 61, 38, 38, 21, 59, 42, 24, 15, 15, 52, 0)
s = 109: (0, 57, 43, 19, 17, 94, 30, 44, 14, 10, 56, 0)
s = 110: (0, 35, 31, 33, 20, 38, 53, 17, 13, 8, 32, 0)
s = 111: (0, 43, 56, 34, 14, 71, 48, 26, 9, 14, 31, 0)
s = 112: (0, 46, 41, 35, 16, 33, 43, 26, 14, 10, 48, 0)
s = 113: (0, 68, 32, 16, 12, 85, 47, 28, 17, 15, 26, 0)
s = 114: (0, 36, 36, 22, 14, 64, 66, 39, 13, 7, 35, 0)
s = 115: (0, 41, 41, 29, 15, 47, 39, 24, 17, 16, 43, 0)
s = 116: (0, 57, 53, 28, 21, 48, 43, 19, 19, 10, 64, 0)
s = 117: (0, 59, 53, 40, 21, 54, 47, 35, 16, 14, 61, 0)
s = 118: (0, 28, 42, 22, 11, 96, 63, 36, 8, 13, 49, 0)
s = 119: (0, 63, 49, 21, 15, 73, 27, 20, 14, 9, 39, 0)
s = 120: (0, 42, 49, 43, 17, 51, 43, 51, 14, 14, 26, 0)
s = 121: (0, 56, 27, 42, 13, 41, 25, 38, 14, 11, 58, 0)
s = 122: (0, 29, 64, 25, 15, 46, 28, 27, 22, 11, 28, 0)
s = 123: (0, 28, 50, 21, 16, 38, 33, 31, 15, 10, 27, 0)
s = 124: (0, 27, 26, 20, 13, 42, 28, 18, 21, 13, 58, 0)
s = 125: (0, 59, 50, 37, 16, 33, 46, 31, 24, 10, 41, 0)
s = 126: (0, 55, 59, 20, 16, 99, 37, 34, 17, 12, 27, 0)
s = 127: (0, 34, 29, 35, 16, 55, 58, 22, 18, 8, 68, 0)
s = 128: (0, 38, 45, 34, 14, 34, 37, 22, 19, 7, 55, 0)
s = 129: (0, 53, 47, 23, 15, 46, 37, 19, 11, 13, 59, 0)
s = 130: (0, 31, 45, 21, 24, 49, 34, 33, 17, 9, 42, 0)
s = 131: (0, 40, 40, 17, 22, 110, 46, 30, 17, 10, 66, 0)
s = 132: (0, 32, 29, 21, 14, 43, 34, 28, 15, 8, 48, 0)
s = 133: (0, 65, 64, 28, 16, 61, 27, 41, 21, 9, 43, 0)
s = 134: (0, 50, 23, 15, 18, 41, 26, 32, 14, 9, 40, 0)
s = 135: (0, 37, 55, 27, 11, 40, 42, 36, 25, 7, 35, 0)
s = 136: (0, 43, 35, 27, 14, 55, 48, 28, 16, 8, 33, 0)
s = 137: (0, 69, 48, 29, 20, 50, 27, 53, 19, 13, 27, 0)
s = 138: (0, 53, 27, 31, 15, 57, 58, 19, 8, 7, 36, 0)
s = 139: (0, 42, 56, 34, 14, 46, 36, 23, 20, 8, 42, 0)
s = 140: (0, 31, 31, 24, 25, 49, 27, 35, 10, 9, 58, 0)
s = 141: (0, 39, 26, 17, 10, 56, 61, 26, 19, 6, 37, 0)
s = 142: (0, 57, 62, 17, 23, 67, 67, 17, 12, 14, 51, 0)
s = 143: (0, 45, 30, 24, 13, 61, 49, 17, 16, 13, 30, 0)
s = 144: (0, 36, 33, 19, 11, 62, 49, 34, 21, 11, 35, 0)
s = 145: (0, 31, 39, 28, 13, 48, 67, 30, 12, 8, 38, 0)
s = 146: (0, 52, 52, 16, 10, 49, 33, 39, 15, 10, 52, 0)
s = 147: (0, 35, 65, 29, 15, 54, 46, 17, 14, 8, 50, 0)
s = 148: (0, 37, 32, 36, 20, 38, 65, 18, 14, 11, 49, 0)
s = 149: (0, 56, 44, 15, 27, 33, 28, 24, 12, 10, 28, 0)
s = 150: (0, 32, 42, 39, 19, 37, 39, 23, 15, 11, 26, 0)
s = 151: (0, 30, 38, 37, 15, 32, 37, 28, 14, 10, 30, 0)
s = 152: (0, 27, 44, 19, 13, 43, 36, 19, 9, 11, 31, 0)
s = 153: (0, 32, 44, 29, 15, 31, 51, 28, 17, 12, 34, 0)
s = 154: (0, 52, 36, 26, 23, 42, 41, 20, 14, 13, 37, 0)
s = 155: (0, 42, 43, 41, 18, 53, 28, 20, 13, 16, 27, 0)
s = 156: (0, 26, 48, 28, 21, 42, 30, 35, 16, 14, 69, 0)
s = 157: (0, 36, 39, 26, 12, 39, 26, 21, 13, 13, 34, 0)
s = 158: (0, 25, 57, 27, 11, 48, 44, 26, 12, 6, 36, 0)
s = 159: (0, 52, 35, 23, 18, 41, 52, 41, 13, 18, 66, 0)
s = 160: (0, 49, 42, 28, 18, 39, 49, 29, 11, 14, 28, 0)
s = 161: (0, 34, 34, 24, 17, 40, 33, 35, 14, 12, 41, 0)
s = 162: (0, 55, 51, 50, 16, 49, 49, 47, 11, 8, 57, 0)
s = 163: (0, 40, 36, 25, 19, 66, 28, 44, 15, 9, 46, 0)
s = 164: (0, 56, 53, 25, 19, 37, 55, 30, 12, 6, 36, 0)
s = 165: (0, 46, 43, 22, 10, 61, 76, 20, 13, 8, 47, 0)
s = 166: (0, 47, 42, 16, 20, 57, 67, 18, 15, 7, 40, 0)
s = 167: (0, 52, 47, 51, 19, 65, 48, 40, 15, 9, 53, 0)
s = 168: (0, 41, 39, 25, 10, 91, 58, 37, 10, 7, 25, 0)
s = 169: (0, 47, 48, 19, 12, 36, 38, 36, 13, 7, 43, 0)
s = 170: (0, 43, 28, 24, 16, 42, 36, 16, 19, 12, 72, 0)
s = 171: (0, 49, 28, 19, 18, 38, 30, 26, 10, 9, 46, 0)
s = 172: (0, 43, 28, 29, 17, 35, 38, 21, 13, 11, 34, 0)
s = 173: (0, 65, 45, 19, 10, 48, 51, 25, 8, 8, 36, 0)
s = 174: (0, 39, 41, 32, 15, 53, 50, 33, 16, 6, 60, 0)
s = 175: (0, 32, 59, 23, 12, 41, 49, 28, 10, 7, 32, 0)
s = 176: (0, 24, 36, 26, 25, 40, 35, 19, 12, 13, 45, 0)
s = 177: (0, 27, 54, 26, 23, 70, 26, 24, 10, 13, 33, 0)
s = 178: (0, 63, 45, 28, 23, 31, 54, 46, 16, 9, 46, 0)
s = 179: (0, 23, 53, 29, 15, 53, 29, 42, 16, 11, 36, 0)
s = 180: (0, 34, 38, 26, 15, 77, 51, 32, 11, 11, 35, 0)
s = 181: (0, 49, 55, 31, 14, 45, 28, 36, 13, 13, 59, 0)
s = 182: (0, 23, 41, 37, 12, 37, 30, 28, 15, 9, 34, 0)
s = 183: (0, 28, 37, 43, 16, 43, 56, 17, 22, 10, 37, 0)
s = 184: (0, 55, 36, 27, 13, 63, 38, 23, 13, 12, 36, 0)
s = 185: (0, 29, 37, 21, 15, 42, 43, 28, 10, 13, 29, 0)
s = 186: (0, 27, 37, 29, 14, 35, 41, 28, 22, 9, 49, 0)
s = 187: (0, 37, 35, 33, 16, 39, 46, 34, 13, 7, 64, 0)
s = 188: (0, 48, 68, 18, 22, 36, 57, 25, 19, 7, 49, 0)
s = 189: (0, 55, 43, 16, 20, 31, 32, 47, 13, 8, 44, 0)
s = 190: (0, 57, 48, 20, 10, 67, 42, 23, 18, 10, 38, 0)
s = 191: (0, 41, 34, 33, 16, 63, 44, 33, 10, 13, 48, 0)
s = 192: (0, 25, 77, 30, 14, 71, 41, 40, 12, 12, 25, 0)
s = 193: (0, 45, 30, 20, 20, 58, 72, 26, 9, 8, 28, 0)
s = 194: (0, 52, 44, 25, 18, 39, 38, 47, 12, 12, 37, 0)
s = 195: (0, 52, 26, 37, 20, 61, 32, 42, 15, 13, 58, 0)
s = 196: (0, 42, 39, 21, 15, 55, 24, 19, 13, 7, 36, 0)
s = 197: (0, 79, 56, 30, 15, 98, 44, 20, 18, 13, 29, 0)
s = 198: (0, 30, 51, 40, 17, 50, 55, 25, 21, 13, 44, 0)
s = 199: (0, 50, 51, 25, 18, 64, 55, 30, 19, 14, 46, 0)
s = 200: (0, 23, 51, 45, 12, 103, 28, 37, 12, 14, 24, 0)
------------------------------------------------------------------------
RESOURCE k = 3
s = 1: (0, 13, 74, 24, 14, 80, 21, 20, 20, 9, 34, 0)
s = 2: (0, 12, 49, 14, 11, 34, 30, 36, 21, 13, 24, 0)
s = 3: (0, 9, 91, 17, 10, 66, 50, 29, 22, 7, 29, 0)
s = 4: (0, 10, 111, 18, 10, 91, 34, 31, 18, 10, 49, 0)
s = 5: (0, 12, 52, 25, 10, 31, 41, 34, 19, 10, 21, 0)
s = 6: (0, 7, 76, 19, 9, 38, 35, 29, 13, 8, 52, 0)
s = 7: (0, 10, 55, 21, 9, 34, 34, 50, 16, 9, 24, 0)
s = 8: (0, 10, 61, 32, 10, 60, 31, 28, 21, 7, 39, 0)
s = 9: (0, 8, 106, 26, 15, 39, 23, 24, 16, 13, 21, 0)
s = 10: (0, 10, 64, 15, 9, 51, 28, 31, 18, 11, 29, 0)
s = 11: (0, 9, 51, 16, 9, 48, 30, 33, 14, 11, 26, 0)
s = 12: (0, 15, 44, 14, 13, 63, 31, 35, 14, 7, 28, 0)
s = 13: (0, 17, 50, 19, 10, 53, 20, 38, 16, 9, 29, 0)
s = 14: (0, 10, 58, 14, 15, 58, 36, 34, 23, 15, 34, 0)
s = 15: (0, 10, 96, 25, 13, 78, 22, 31, 21, 12, 21, 0)
s = 16: (0, 16, 65, 13, 11, 36, 24, 24, 18, 11, 27, 0)
s = 17: (0, 13, 46, 17, 14, 52, 19, 26, 15, 7, 20, 0)
s = 18: (0, 11, 40, 37, 13, 58, 35, 26, 23, 10, 32, 0)
s = 19: (0, 10, 42, 25, 10, 34, 27, 37, 22, 10, 19, 0)
s = 20: (0, 9, 41, 26, 8, 44, 42, 35, 23, 11, 31, 0)
s = 21: (0, 15, 44, 15, 14, 53, 24, 38, 15, 8, 20, 0)
s = 22: (0, 14, 63, 22, 8, 72, 34, 34, 13, 18, 51, 0)
s = 23: (0, 6, 54, 31, 10, 46, 22, 49, 14, 7, 32, 0)
s = 24: (0, 6, 53, 21, 13, 51, 24, 26, 18, 10, 26, 0)
s = 25: (0, 13, 63, 19, 11, 43, 22, 35, 24, 11, 30, 0)
s = 26: (0, 10, 73, 15, 16, 52, 25, 20, 18, 9, 27, 0)
s = 27: (0, 10, 62, 24, 12, 91, 33, 35, 12, 8, 23, 0)
s = 28: (0, 13, 75, 17, 15, 56, 26, 24, 21, 9, 29, 0)
s = 29: (0, 11, 77, 32, 9, 55, 24, 28, 18, 11, 25, 0)
s = 30: (0, 12, 48, 17, 14, 59, 41, 41, 18, 13, 24, 0)
s = 31: (0, 9, 45, 22, 8, 45, 32, 38, 28, 10, 20, 0)
s = 32: (0, 15, 59, 28, 17, 40, 56, 37, 13, 12, 20, 0)
s = 33: (0, 6, 54, 16, 12, 55, 50, 20, 22, 9, 37, 0)
s = 34: (0, 9, 34, 24, 13, 61, 26, 44, 16, 8, 47, 0)
s = 35: (0, 8, 82, 17, 17, 47, 25, 32, 26, 7, 28, 0)
s = 36: (0, 10, 40, 20, 17, 42, 21, 27, 13, 8, 34, 0)
s = 37: (0, 13, 69, 27, 9, 60, 28, 36, 21, 11, 28, 0)
s = 38: (0, 8, 64, 12, 12, 54, 22, 22, 22, 7, 32, 0)
s = 39: (0, 12, 35, 32, 12, 53, 26, 22, 22, 12, 19, 0)
s = 40: (0, 8, 56, 16, 21, 56, 28, 25, 26, 10, 31, 0)
s = 41: (0, 7, 70, 14, 10, 52, 36, 38, 12, 17, 48, 0)
s = 42: (0, 8, 78, 17, 12, 37, 33, 49, 21, 13, 31, 0)
s = 43: (0, 9, 44, 31, 10, 64, 32, 20, 15, 8, 32, 0)
s = 44: (0, 10, 82, 18, 11, 75, 18, 32, 20, 8, 36, 0)
s = 45: (0, 11, 59, 24, 12, 54, 29, 36, 11, 14, 32, 0)
s = 46: (0, 13, 55, 32, 13, 50, 33, 22, 16, 10, 27, 0)
s = 47: (0, 9, 49, 18, 13, 80, 26, 22, 23, 7, 18, 0)
s = 48: (0, 8, 50, 17, 14, 35, 29, 35, 16, 14, 21, 0)
s = 49: (0, 8, 50, 23, 12, 45, 35, 20, 20, 19, 25, 0)
s = 50: (0, 13, 73, 12, 22, 55, 47, 42, 14, 12, 18, 0)
s = 51: (0, 7, 62, 19, 16, 84, 40, 60, 15, 7, 25, 0)
s = 52: (0, 11, 53, 21, 8, 45, 20, 36, 17, 9, 23, 0)
s = 53: (0, 14, 46, 20, 16, 69, 31, 26, 16, 8, 25, 0)
s = 54: (0, 9, 61, 27, 17, 72, 36, 30, 20, 11, 38, 0)
s = 55: (0, 10, 100, 15, 11, 67, 26, 33, 19, 8, 37, 0)
s = 56: (0, 12, 76, 20, 10, 57, 43, 28, 15, 10, 35, 0)
s = 57: (0, 10, 73, 17, 15, 31, 41, 32, 17, 8, 24, 0)
s = 58: (0, 10, 71, 16, 13, 31, 38, 29, 16, 8, 37, 0)
s = 59: (0, 7, 81, 35, 13, 62, 40, 39, 19, 8, 17, 0)
s = 60: (0, 8, 41, 19, 11, 53, 24, 28, 14, 13, 27, 0)
s = 61: (0, 17, 54, 23, 11, 54, 20, 28, 15, 10, 20, 0)
s = 62: (0, 12, 51, 23, 19, 44, 32, 35, 17, 8, 26, 0)
s = 63: (0, 9, 59, 12, 10, 32, 36, 19, 22, 7, 30, 0)
s = 64: (0, 7, 39, 29, 18, 53, 26, 34, 25, 17, 35, 0)
s = 65: (0, 9, 44, 25, 12, 44, 42, 22, 16, 9, 22, 0)
s = 66: (0, 11, 74, 24, 11, 39, 21, 33, 16, 12, 47, 0)
s = 67: (0, 10, 83, 24, 9, 74, 24, 34, 23, 8, 38, 0)
s = 68: (0, 18, 45, 25, 15, 65, 22, 23, 15, 6, 33, 0)
s = 69: (0, 16, 50, 23, 15, 40, 25, 50, 14, 7, 30, 0)
s = 70: (0, 8, 56, 23, 14, 37, 30, 30, 20, 11, 19, 0)
s = 71: (0, 13, 55, 26, 9, 62, 28, 23, 22, 16, 29, 0)
s = 72: (0, 14, 48, 16, 9, 64, 32, 27, 13, 10, 30, 0)
s = 73: (0, 10, 68, 17, 8, 74, 43, 22, 13, 11, 35, 0)
s = 74: (0, 9, 47, 32, 11, 40, 32, 30, 21, 17, 49, 0)
s = 75: (0, 11, 57, 21, 12, 35, 23, 28, 29, 7, 30, 0)
s = 76: (0, 17, 84, 21, 12, 46, 35, 31, 14, 11, 33, 0)
s = 77: (0, 11, 82, 36, 10, 50, 41, 28, 22, 15, 19, 0)
s = 78: (0, 6, 45, 22, 15, 56, 26, 38, 30, 9, 36, 0)
s = 79: (0, 10, 79, 22, 14, 41, 30, 22, 25, 6, 34, 0)
s = 80: (0, 11, 46, 31, 17, 56, 25, 32, 14, 10, 22, 0)
s = 81: (0, 10, 52, 27, 10, 37, 25, 22, 23, 9, 24, 0)
s = 82: (0, 9, 81, 17, 10, 60, 23, 42, 15, 13, 23, 0)
s = 83: (0, 17, 49, 17, 12, 57, 27, 27, 12, 9, 26, 0)
s = 84: (0, 7, 81, 21, 10, 40, 27, 57, 22, 7, 37, 0)
s = 85: (0, 12, 67, 25, 12, 39, 24, 25, 13, 9, 23, 0)
s = 86: (0, 10, 52, 20, 12, 31, 33, 34, 27, 16, 30, 0)
s = 87: (0, 12, 88, 25, 12, 44, 33, 23, 12, 6, 36, 0)
s = 88: (0, 9, 47, 16, 13, 44, 40, 25, 28, 14, 29, 0)
s = 89: (0, 11, 42, 15, 14, 71, 27, 38, 19, 9, 20, 0)
s = 90: (0, 7, 35, 27, 7, 39, 25, 45, 18, 10, 23, 0)
s = 91: (0, 8, 55, 26, 13, 55, 17, 19, 15, 7, 23, 0)
s = 92: (0, 10, 41, 18, 11, 65, 26, 25, 12, 8, 22, 0)
s = 93: (0, 11, 50, 13, 13, 62, 23, 23, 24, 12, 29, 0)
s = 94: (0, 11, 52, 16, 12, 49, 26, 41, 11, 6, 20, 0)
s = 95: (0, 11, 42, 25, 8, 56, 31, 25, 19, 13, 22, 0)
s = 96: (0, 12, 49, 29, 21, 35, 37, 24, 24, 16, 27, 0)
s = 97: (0, 9, 51, 21, 17, 50, 50, 34, 16, 10, 32, 0)
s = 98: (0, 11, 48, 21, 9, 96, 25, 22, 12, 15, 26, 0)
s = 99: (0, 8, 50, 19, 13, 44, 37, 48, 13, 11, 30, 0)
s = 100: (0, 12, 55, 23, 13, 74, 47, 32, 23, 14, 47, 0)
s = 101: (0, 9, 56, 11, 12, 32, 26, 19, 13, 6, 46, 0)
s = 102: (0, 10, 49, 23, 8, 90, 18, 24, 22, 15, 31, 0)
s = 103: (0, 11, 62, 22, 20, 60, 29, 44, 21, 7, 25, 0)
s = 104: (0, 9, 59, 14, 10, 37, 29, 18, 28, 8, 22, 0)
s = 105: (0, 13, 58, 25, 13, 103, 22, 43, 22, 8, 25, 0)
s = 106: (0, 9, 59, 19, 10, 36, 23, 31, 16, 8, 33, 0)
s = 107: (0, 13, 85, 17, 9, 86, 26, 41, 21, 7, 34, 0)
s = 108: (0, 16, 57, 30, 16, 59, 28, 27, 20, 15, 39, 0)
s = 109: (0, 15, 64, 15, 13, 94, 20, 51, 17, 10, 42, 0)
s = 110: (0, 9, 46, 26, 15, 38, 35, 19, 16, 8, 24, 0)
s = 111: (0, 11, 83, 27, 11, 71, 32, 29, 11, 14, 23, 0)
s = 112: (0, 12, 61, 28, 12, 33, 29, 30, 18, 10, 36, 0)
s = 113: (0, 17, 48, 13, 9, 85, 31, 32, 21, 15, 20, 0)
s = 114: (0, 9, 54, 17, 10, 64, 44, 45, 16, 7, 27, 0)
s = 115: (0, 11, 61, 23, 12, 47, 26, 27, 21, 16, 33, 0)
s = 116: (0, 15, 79, 22, 16, 48, 29, 22, 25, 10, 48, 0)
s = 117: (0, 15, 79, 31, 16, 54, 31, 40, 21, 14, 46, 0)
s = 118: (0, 7, 62, 17, 9, 96, 42, 41, 11, 13, 37, 0)
s = 119: (0, 16, 74, 16, 11, 73, 18, 23, 18, 9, 29, 0)
s = 120: (0, 11, 73, 34, 13, 51, 29, 59, 18, 14, 20, 0)
s = 121: (0, 14, 40, 33, 10, 41, 17, 43, 17, 11, 44, 0)
s = 122: (0, 8, 96, 20, 11, 46, 19, 31, 28, 11, 21, 0)
s = 123: (0, 7, 75, 17, 12, 38, 22, 36, 19, 10, 21, 0)
s = 124: (0, 7, 38, 16, 10, 42, 19, 21, 26, 13, 43, 0)
s = 125: (0, 15, 75, 29, 12, 33, 31, 35, 31, 10, 31, 0)
s = 126: (0, 14, 89, 15, 12, 99, 25, 38, 22, 12, 21, 0)
s = 127: (0, 9, 43, 27, 12, 55, 39, 26, 23, 8, 51, 0)
s = 128: (0, 10, 68, 26, 10, 34, 25, 25, 25, 7, 42, 0)
s = 129: (0, 14, 70, 18, 11, 46, 25, 21, 14, 13, 44, 0)
s = 130: (0, 8, 67, 16, 18, 49, 23, 38, 22, 9, 31, 0)
s = 131: (0, 10, 60, 13, 17, 110, 31, 34, 21, 10, 49, 0)
s = 132: (0, 8, 43, 17, 11, 43, 23, 32, 19, 8, 36, 0)
s = 133: (0, 17, 95, 22, 12, 61, 18, 47, 27, 9, 33, 0)
s = 134: (0, 13, 35, 12, 14, 41, 18, 37, 18, 9, 30, 0)
s = 135: (0, 10, 82, 21, 9, 40, 28, 41, 32, 7, 26, 0)
s = 136: (0, 11, 52, 21, 10, 55, 32, 32, 21, 8, 25, 0)
s = 137: (0, 18, 72, 23, 15, 50, 18, 61, 24, 13, 20, 0)
s = 138: (0, 14, 40, 24, 11, 57, 39, 22, 11, 7, 27, 0)
s = 139: (0, 11, 83, 27, 11, 46, 24, 26, 26, 8, 31, 0)
s = 140: (0, 8, 46, 19, 19, 49, 18, 40, 13, 9, 43, 0)
s = 141: (0, 10, 39, 13, 8, 56, 41, 30, 25, 6, 28, 0)
s = 142: (0, 15, 93, 14, 18, 67, 45, 19, 16, 14, 38, 0)
s = 143: (0, 12, 45, 19, 10, 61, 33, 19, 21, 13, 23, 0)
s = 144: (0, 9, 50, 15, 8, 62, 33, 39, 27, 11, 26, 0)
s = 145: (0, 8, 58, 22, 10, 48, 45, 34, 15, 8, 28, 0)
s = 146: (0, 13, 78, 13, 8, 49, 22, 45, 20, 10, 39, 0)
s = 147: (0, 9, 97, 23, 12, 54, 31, 19, 18, 8, 37, 0)
s = 148: (0, 10, 48, 28, 15, 38, 44, 21, 18, 11, 37, 0)
s = 149: (0, 14, 65, 12, 20, 33, 19, 27, 16, 10, 21, 0)
s = 150: (0, 8, 63, 30, 14, 37, 26, 27, 19, 11, 20, 0)
s = 151: (0, 8, 56, 29, 12, 32, 25, 32, 17, 10, 23, 0)
s = 152: (0, 7, 65, 15, 10, 43, 24, 22, 12, 11, 23, 0)
s = 153: (0, 8, 65, 23, 11, 31, 34, 32, 21, 12, 26, 0)
s = 154: (0, 13, 54, 21, 17, 42, 28, 23, 18, 13, 28, 0)
s = 155: (0, 11, 64, 32, 14, 53, 19, 23, 17, 16, 20, 0)
s = 156: (0, 7, 72, 22, 16, 42, 20, 40, 21, 14, 52, 0)
s = 157: (0, 9, 58, 20, 9, 39, 18, 24, 16, 13, 26, 0)
s = 158: (0, 7, 85, 21, 8, 48, 30, 30, 15, 6, 27, 0)
s = 159: (0, 13, 53, 18, 13, 41, 35, 46, 16, 18, 50, 0)
s = 160: (0, 13, 63, 22, 14, 39, 33, 33, 13, 14, 21, 0)
s = 161: (0, 9, 51, 18, 13, 40, 22, 40, 17, 12, 31, 0)
s = 162: (0, 14, 76, 39, 12, 49, 33, 53, 14, 8, 43, 0)
s = 163: (0, 10, 53, 19, 15, 66, 19, 50, 20, 9, 34, 0)
s = 164: (0, 14, 79, 20, 15, 37, 37, 34, 16, 6, 27, 0)
s = 165: (0, 12, 64, 17, 8, 61, 51, 23, 17, 8, 36, 0)
s = 166: (0, 12, 63, 13, 15, 57, 45, 20, 20, 7, 30, 0)
s = 167: (0, 13, 70, 40, 14, 65, 32, 45, 19, 9, 40, 0)
s = 168: (0, 11, 58, 19, 7, 91, 39, 42, 13, 7, 19, 0)
s = 169: (0, 12, 72, 15, 9, 36, 25, 41, 16, 7, 33, 0)
s = 170: (0, 11, 42, 18, 12, 42, 24, 18, 24, 12, 54, 0)
s = 171: (0, 13, 42, 15, 14, 38, 20, 30, 13, 9, 35, 0)
s = 172: (0, 11, 41, 22, 13, 35, 25, 24, 16, 11, 25, 0)
s = 173: (0, 17, 67, 15, 8, 48, 34, 28, 10, 8, 27, 0)
s = 174: (0, 10, 61, 25, 12, 53, 33, 38, 20, 6, 45, 0)
s = 175: (0, 8, 88, 18, 9, 41, 33, 32, 13, 7, 24, 0)
s = 176: (0, 6, 54, 20, 19, 40, 23, 21, 15, 13, 34, 0)
s = 177: (0, 7, 81, 20, 17, 70, 17, 27, 12, 13, 25, 0)
s = 178: (0, 16, 68, 22, 17, 31, 36, 53, 20, 9, 34, 0)
s = 179: (0, 6, 79, 23, 11, 53, 20, 48, 21, 11, 27, 0)
s = 180: (0, 9, 56, 20, 11, 77, 34, 37, 14, 11, 26, 0)
s = 181: (0, 13, 83, 24, 10, 45, 19, 41, 16, 13, 44, 0)
s = 182: (0, 6, 61, 29, 9, 37, 20, 32, 19, 9, 26, 0)
s = 183: (0, 7, 55, 33, 12, 43, 37, 19, 28, 10, 28, 0)
s = 184: (0, 14, 54, 21, 10, 63, 25, 26, 16, 12, 27, 0)
s = 185: (0, 8, 55, 16, 11, 42, 29, 32, 13, 13, 22, 0)
s = 186: (0, 7, 55, 23, 10, 35, 28, 31, 29, 9, 37, 0)
s = 187: (0, 10, 53, 26, 12, 39, 31, 39, 17, 7, 48, 0)
s = 188: (0, 12, 102, 14, 16, 36, 38, 29, 24, 7, 37, 0)
s = 189: (0, 14, 64, 13, 15, 31, 22, 54, 17, 8, 33, 0)
s = 190: (0, 15, 71, 15, 8, 67, 28, 26, 23, 10, 29, 0)
s = 191: (0, 11, 50, 25, 12, 63, 30, 38, 13, 13, 36, 0)
s = 192: (0, 7, 115, 23, 11, 71, 27, 45, 16, 12, 19, 0)
s = 193: (0, 12, 45, 16, 15, 58, 48, 30, 12, 8, 21, 0)
s = 194: (0, 13, 66, 19, 14, 39, 26, 53, 15, 12, 28, 0)
s = 195: (0, 13, 38, 29, 15, 61, 21, 48, 19, 13, 43, 0)
s = 196: (0, 11, 58, 17, 11, 55, 16, 21, 17, 7, 27, 0)
s = 197: (0, 20, 83, 24, 12, 98, 30, 23, 23, 13, 22, 0)
s = 198: (0, 8, 76, 32, 13, 50, 37, 28, 27, 13, 33, 0)
s = 199: (0, 13, 77, 20, 14, 64, 37, 34, 24, 14, 34, 0)
s = 200: (0, 6, 76, 35, 9, 103, 19, 42, 15, 14, 18, 0)
************************************************************************
ES/LS-VALUES:
jobnr.   ES(i)    LS(i)
------------------------------------------------------------------------
  0        0        0
  1        0       46
  2        0       56
  3        0       62
  4        5       68
  5       10       56
  6       22       72
  7       22       69
  8       12       82
  9       31       82
 10       29       77
 11       38       86
************************************************************************
BIG-M-VALUES:
M1 = 75, M2 = 294
************************************************************************
